% File represents an instance of a Composite Structure problem to be solved by a CP framework
% Created on 2025-03-25 14:05:14.954
T = 60;
n = 25;
m = 40;
edges = [(1, 2),
(7, 6),
(12, 11),
(17, 16),
(21, 22),
(2, 3),
(8, 7),
(13, 12),
(18, 17),
(22, 23),
(4, 3),
(8, 9),
(13, 14),
(19, 18),
(24, 23),
(4, 5),
(10, 9),
(14, 15),
(20, 19),
(24, 25),
(1, 6),
(6, 11),
(11, 16),
(16, 21),
(2, 7),
(7, 12),
(17, 12),
(17, 22),
(3, 8),
(13, 8),
(13, 18),
(18, 23),
(4, 9),
(9, 14),
(14, 19),
(19, 24),
(10, 5),
(10, 15),
(20, 15),
(20, 25)];
counts = [|24, 8, 4, 24,
|23, 8, 4, 24,
|23, 7, 4, 24,
|24, 7, 4, 24,
|20, 6, 2, 22,
|22, 4, 3, 23,
|22, 6, 3, 24,
|22, 7, 4, 24,
|22, 6, 4, 24,
|22, 6, 4, 28,
|21, 3, 3, 20,
|22, 3, 3, 20,
|22, 8, 4, 24,
|22, 5, 4, 24,
|22, 2, 4, 22,
|20, 3, 3, 20,
|22, 4, 3, 20,
|22, 4, 3, 21,
|22, 4, 4, 24,
|22, 4, 10, 24,
|20, 2, 3, 20,
|19, 2, 3, 20,
|19, 2, 3, 19,
|22, 3, 4, 24,
|22, 3, 3, 24|];
